row=7;
column=7;
Board=[|6,4,3,2,5,1,7|5,1,7,3,6,2,4|4,7,6,5,1,3,2|3,6,1,4,2,7,5|7,2,4,6,3,5,1|1,5,2,7,4,6,3|2,3,5,1,7,4,6|];
horizontal=[|1,1,1,0,1,0|1,0,1,0,1,0|0,1,1,1,0,1|0,1,0,1,0,1|1,0,0,1,0,1|0,1,0,1,0,1|0,0,1,0,1,0|];
vertical=[|1,1,0,0,0,0,1|1,0,1,0,1,0,1|1,1,1,1,0,0,-1|0,1,0,0,0,1,1|1,0,1,0,0,0,0|0,1,0,1,0,1,0|];
